Route #1: 71 62 99 98 89
Route #2: 93 75
Route #3: 31 46 35
Route #4: 19 97 27
Route #5: 20 41 22 15
Route #6: 7 2 45 43 29 36 72 57
Route #7: 23 61 100
Route #8: 81 51 83
Route #9: 63 77 3
Route #10: 5 12 58
Route #11: 25 65 78 42 28
Route #12: 52 91 50
Route #13: 17 8
Route #14: 1 70 54
Route #15: 32 33 53 73 95 24
Route #16: 21 56 94 80
Route #17: 79 11 85 30
Route #18: 14 49 6 37 87
Route #19: 69 16 55 76
Route #20: 39 10 18
Route #21: 38 47 26 48 96 64 34
Route #22: 86 9 92
Route #23: 82 60 59
Route #24: 74 13 4
Route #25: 66 84 90 68
Route #26: 40 88 67 44
Cost 27591.0000
Time 16.0001